CMPL model generation - running

CMPL version: 1.11.0
Authors: Thomas Schleiff, Mike Steglich
Distributed under the GPLv3 

create model instance ...
write model instance ...
CMPL model generation - finished

Solver - running


Welcome to IBM(R) ILOG(R) CPLEX(R) Interactive Optimizer 12.7.1.0
  with Simplex, Mixed Integer & Barrier Optimizers
5725-A06 5725-A29 5724-Y48 5724-Y49 5724-Y54 5724-Y55 5655-Y21
Copyright IBM Corp. 1988, 2017.  All Rights Reserved.

Type 'help' for a list of available commands.
Type 'help' followed by a command name for more
information on commands.

CPLEX> Specified objective sense: MINIMIZE
Selected objective  name:  line[1]
Selected RHS        name:  RHS
Selected bound      name:  BOUND
Problem '/tmp/cmpl.T23862.mps' read.
Read time = 0.08 sec. (10.12 ticks)
CPLEX> CPXPARAM_Read_APIEncoding                        "UTF-8"
Tried aggregator 3 times.
MIP Presolve eliminated 24049 rows and 37672 columns.
MIP Presolve modified 425 coefficients.
Aggregator did 735 substitutions.
Reduced MIP has 3138 rows, 4048 columns, and 11988 nonzeros.
Reduced MIP has 3838 binaries, 0 generals, 0 SOSs, and 0 indicators.
Presolve time = 0.08 sec. (51.87 ticks)
Found incumbent of value 621.413496 after 0.14 sec. (76.80 ticks)
Probing fixed 11 vars, tightened 0 bounds.
Probing time = 0.01 sec. (5.19 ticks)
Tried aggregator 1 time.
MIP Presolve eliminated 0 rows and 11 columns.
MIP Presolve modified 52 coefficients.
Reduced MIP has 3138 rows, 4037 columns, and 11966 nonzeros.
Reduced MIP has 4037 binaries, 0 generals, 0 SOSs, and 0 indicators.
Presolve time = 0.02 sec. (10.10 ticks)
Probing time = 0.01 sec. (2.84 ticks)
Clique table members: 7298.
MIP emphasis: balance optimality and feasibility.
MIP search method: dynamic search.
Parallel mode: none, using 1 thread.
Root relaxation solution time = 0.01 sec. (5.62 ticks)

        Nodes                                         Cuts/
   Node  Left     Objective  IInf  Best Integer    Best Bound    ItCnt     Gap

*     0+    0                          621.4135      -34.1629           105.50%
      0     0      122.9282    12      621.4135      122.9282      127   80.22%
*     0+    0                          133.0900      122.9282             7.64%
*     0+    0                          123.2024      122.9282             0.22%
      0     0      123.1628     1      123.2024      Cuts: 29      141    0.03%
*     0+    0                          123.1786      123.1628             0.01%
      0     0        cutoff            123.1786                    141    0.00%
Elapsed time = 0.23 sec. (127.98 ticks, tree = 0.01 MB, solutions = 4)

Clique cuts applied:  5
Cover cuts applied:  16
Gomory fractional cuts applied:  8

Root node processing (before b&c):
  Real time             =    0.24 sec. (130.09 ticks)
Sequential b&c:
  Real time             =    0.00 sec. (0.00 ticks)
                          ------------
Total (root+branch&cut) =    0.24 sec. (130.09 ticks)

Solution pool: 4 solutions saved.

MIP - Integer optimal solution:  Objective =  1.2317858400e+02
Solution time =    0.24 sec.  Iterations = 141  Nodes = 0
Deterministic time = 130.21 ticks  (547.15 ticks/sec)

CPLEX> Incumbent solution written to file '/tmp/cmpl.T23862.gsol'.
CPLEX> 
CMPL: Time used for model generation: 1 seconds
CMPL: Time used for solving the model: 1 seconds


Solution written to ASCII file: results/output_generated_conf_0.3/2017-05-01-5/fair-nonlinear.sol

Solver - finished
